n=15;
t=18;
profit=[6 1 10 1 10 1 4 8 6 3 5 7 2 8 10];
length=[1 2 5 5 2 3 5 4 5 3 2 2 3 3 2];
min_deliver=[11 14 9 6 4 6 5 5 16 6 6 12 6 9 2];
max_deliver=[18 18 11 7 13 8 7 5 17 9 10 15 10 12 2];
surface=[5 4 5 5 3 3 1 4 3 1 3 4 4 5 3];
surface_capacity=8;
